1766.0,1766.0,1775.0,1784.0,1784.0,1793.0,1793.0,1802.0,1802.0,1802.0,1802.0,1766.0,1766.0,1766.0,1775.0,1775.0,1775.0,1775.0,1784.0,1784.0,1793.0,1766.0,1766.0,1766.0,1766.0,1766.0,1766.0,1766.0,1766.0,1757.0,1757.0,1757.0,1757.0,1757.0,1766.0,1766.0,1775.0,1775.0,1775.0,1775.0,1775.0,1757.0,1757.0,1757.0,1757.0,1757.0,1757.0,1757.0,2316.0,1757.0,1757.0,1757.0,1757.0,1757.0,1766.0,1775.0,1775.0,1784.0,1784.0,1784.0,1784.0,1757.0,1766.0,1766.0,1766.0,1775.0,1784.0,1784.0,1784.0,1784.0,1784.0,1757.0,1757.0,1757.0,1766.0,1766.0,1766.0,1766.0,1766.0,1766.0,1775.0,1757.0,1757.0,1757.0,1757.0,1766.0,1766.0,1766.0,1766.0,1766.0,1766.0,1757.0,1766.0,1766.0,1766.0,1775.0,1775.0,2312.0,2312.0,2312.0,2312.0,1766.0,1775.0,1775.0,1775.0,1775.0,1775.0,1784.0,1784.0,1784.0,1784.0,1766.0,1766.0,1766.0,1766.0,1766.0,1775.0,1784.0,1787.0,1787.0,1787.0,1757.0,1757.0,1757.0,1766.0,1766.0,2316.0,1766.0,1775.0,1775.0,1784.0,1766.0,1766.0,1775.0,1775.0,1775.0,1775.0,1784.0,1793.0,1793.0,1793.0,1766.0,1775.0,1775.0,1775.0,1775.0,2325.0,1775.0,1784.0,1775.0,1775.0,1757.0,1766.0,1766.0,1766.0,1766.0,1766.0,1766.0,1766.0,1766.0,1775.0,1766.0,1775.0,1775.0,1775.0,1775.0,1775.0,1775.0,1775.0,1775.0,1775.0,1766.0,1766.0,1766.0,1775.0,1775.0,1775.0,1775.0,1775.0,1784.0,1784.0,1757.0,1757.0,1757.0,1757.0,1757.0,1757.0,1757.0,1757.0,1757.0,1757.0,1757.0,1766.0,1766.0,1766.0,1766.0,1766.0,1766.0,1766.0,1766.0,1766.0,1757.0,1757.0,1757.0,1757.0,1757.0,1757.0,1757.0,1757.0,1757.0,1757.0,1766.0,1769.0,1766.0,1766.0,1775.0,1775.0,2266.0,1784.0,1775.0,1775.0